200
1000
495
493
493
487
486
486
483
483
481
478
477
476
474
473
472
472
472
471
470
469
467
464
464
462
461
458
456
454
451
450
449
448
444
443
441
440
437
433
432
432
430
429
428
425
421
419
418
417
417
411
411
409
409
408
405
405
403
401
400
399
397
393
390
388
387
387
387
385
384
383
382
381
379
378
376
375
374
374
371
370
367
364
358
355
355
353
353
350
349
346
346
345
342
341
339
338
336
335
334
334
331
331
330
326
326
325
324
321
320
319
316
316
315
313
313
311
311
311
311
309
308
307
307
306
303
302
302
302
298
298
297
297
295
294
291
288
284
283
283
282
281
281
280
277
277
276
273
272
270
265
264
264
264
263
259
253
253
251
250
247
247
245
240
237
237
236
232
232
231
231
227
222
221
213
213
210
203
203
202
201
201
196
195
193
193
191
189
188
188
185
182
181
179
179
177
176
175
172
169
169
